p cnf 120 2596
1 2 3 0
4 5 6 0
7 8 9 0
10 11 12 0
13 14 15 0
16 17 18 0
19 20 21 0
22 23 24 0
25 26 27 0
28 29 30 0
31 32 33 0
34 35 36 0
37 38 39 0
40 41 42 0
43 44 45 0
46 47 48 0
49 50 51 0
52 53 54 0
55 56 57 0
58 59 60 0
61 62 63 0
64 65 66 0
67 68 69 0
70 71 72 0
73 74 75 0
76 77 78 0
79 80 81 0
82 83 84 0
85 86 87 0
88 89 90 0
91 92 93 0
94 95 96 0
97 98 99 0
100 101 102 0
103 104 105 0
106 107 108 0
109 110 111 0
112 113 114 0
115 116 117 0
118 119 120 0
-1 -2 0
-1 -3 0
-2 -3 0
-4 -5 0
-4 -6 0
-5 -6 0
-7 -8 0
-7 -9 0
-8 -9 0
-10 -11 0
-10 -12 0
-11 -12 0
-13 -14 0
-13 -15 0
-14 -15 0
-16 -17 0
-16 -18 0
-17 -18 0
-19 -20 0
-19 -21 0
-20 -21 0
-22 -23 0
-22 -24 0
-23 -24 0
-25 -26 0
-25 -27 0
-26 -27 0
-28 -29 0
-28 -30 0
-29 -30 0
-31 -32 0
-31 -33 0
-32 -33 0
-34 -35 0
-34 -36 0
-35 -36 0
-37 -38 0
-37 -39 0
-38 -39 0
-40 -41 0
-40 -42 0
-41 -42 0
-43 -44 0
-43 -45 0
-44 -45 0
-46 -47 0
-46 -48 0
-47 -48 0
-49 -50 0
-49 -51 0
-50 -51 0
-52 -53 0
-52 -54 0
-53 -54 0
-55 -56 0
-55 -57 0
-56 -57 0
-58 -59 0
-58 -60 0
-59 -60 0
-61 -62 0
-61 -63 0
-62 -63 0
-64 -65 0
-64 -66 0
-65 -66 0
-67 -68 0
-67 -69 0
-68 -69 0
-70 -71 0
-70 -72 0
-71 -72 0
-73 -74 0
-73 -75 0
-74 -75 0
-76 -77 0
-76 -78 0
-77 -78 0
-79 -80 0
-79 -81 0
-80 -81 0
-82 -83 0
-82 -84 0
-83 -84 0
-85 -86 0
-85 -87 0
-86 -87 0
-88 -89 0
-88 -90 0
-89 -90 0
-91 -92 0
-91 -93 0
-92 -93 0
-94 -95 0
-94 -96 0
-95 -96 0
-97 -98 0
-97 -99 0
-98 -99 0
-100 -101 0
-100 -102 0
-101 -102 0
-103 -104 0
-103 -105 0
-104 -105 0
-106 -107 0
-106 -108 0
-107 -108 0
-109 -110 0
-109 -111 0
-110 -111 0
-112 -113 0
-112 -114 0
-113 -114 0
-115 -116 0
-115 -117 0
-116 -117 0
-118 -119 0
-118 -120 0
-119 -120 0
-1 -4 0
-1 -7 0
-1 -10 0
-1 -13 0
-1 -19 0
-1 -22 0
-1 -31 0
-1 -37 0
-1 -46 0
-1 -52 0
-1 -55 0
-1 -67 0
-1 -73 0
-1 -76 0
-1 -79 0
-1 -82 0
-1 -85 0
-1 -88 0
-1 -91 0
-1 -94 0
-1 -97 0
-1 -100 0
-1 -109 0
-1 -112 0
-4 -1 0
-4 -7 0
-4 -13 0
-4 -19 0
-4 -46 0
-4 -49 0
-4 -52 0
-4 -55 0
-4 -58 0
-4 -61 0
-4 -73 0
-4 -82 0
-4 -85 0
-4 -88 0
-4 -91 0
-4 -94 0
-4 -100 0
-4 -103 0
-4 -109 0
-4 -115 0
-7 -1 0
-7 -4 0
-7 -10 0
-7 -13 0
-7 -16 0
-7 -19 0
-7 -22 0
-7 -25 0
-7 -31 0
-7 -37 0
-7 -43 0
-7 -46 0
-7 -49 0
-7 -52 0
-7 -58 0
-7 -61 0
-7 -67 0
-7 -82 0
-7 -85 0
-7 -88 0
-7 -91 0
-7 -106 0
-7 -115 0
-10 -1 0
-10 -7 0
-10 -16 0
-10 -22 0
-10 -25 0
-10 -28 0
-10 -37 0
-10 -40 0
-10 -49 0
-10 -55 0
-10 -64 0
-10 -70 0
-10 -73 0
-10 -76 0
-10 -79 0
-10 -82 0
-10 -85 0
-10 -88 0
-10 -97 0
-10 -100 0
-10 -103 0
-10 -106 0
-10 -109 0
-10 -115 0
-13 -1 0
-13 -4 0
-13 -7 0
-13 -16 0
-13 -19 0
-13 -22 0
-13 -31 0
-13 -34 0
-13 -37 0
-13 -46 0
-13 -49 0
-13 -52 0
-13 -58 0
-13 -64 0
-13 -79 0
-13 -91 0
-13 -94 0
-13 -97 0
-16 -7 0
-16 -10 0
-16 -13 0
-16 -19 0
-16 -22 0
-16 -25 0
-16 -31 0
-16 -37 0
-16 -40 0
-16 -43 0
-16 -46 0
-16 -52 0
-16 -55 0
-16 -58 0
-16 -61 0
-16 -67 0
-16 -73 0
-16 -76 0
-16 -82 0
-16 -97 0
-16 -100 0
-16 -106 0
-16 -109 0
-16 -115 0
-19 -1 0
-19 -4 0
-19 -7 0
-19 -13 0
-19 -16 0
-19 -25 0
-19 -28 0
-19 -31 0
-19 -34 0
-19 -37 0
-19 -40 0
-19 -49 0
-19 -55 0
-19 -58 0
-19 -73 0
-19 -79 0
-19 -88 0
-19 -91 0
-19 -103 0
-19 -109 0
-19 -112 0
-22 -1 0
-22 -7 0
-22 -10 0
-22 -13 0
-22 -16 0
-22 -25 0
-22 -31 0
-22 -34 0
-22 -37 0
-22 -43 0
-22 -46 0
-22 -49 0
-22 -52 0
-22 -55 0
-22 -61 0
-22 -67 0
-22 -79 0
-22 -88 0
-22 -91 0
-22 -103 0
-25 -7 0
-25 -10 0
-25 -16 0
-25 -19 0
-25 -22 0
-25 -31 0
-25 -34 0
-25 -37 0
-25 -43 0
-25 -52 0
-25 -55 0
-25 -61 0
-25 -64 0
-25 -73 0
-25 -79 0
-25 -85 0
-25 -88 0
-25 -100 0
-25 -109 0
-28 -10 0
-28 -19 0
-28 -31 0
-28 -34 0
-28 -37 0
-28 -46 0
-28 -49 0
-28 -52 0
-28 -55 0
-28 -58 0
-28 -61 0
-28 -67 0
-28 -70 0
-28 -73 0
-28 -85 0
-28 -88 0
-28 -94 0
-28 -97 0
-28 -103 0
-28 -109 0
-28 -112 0
-31 -1 0
-31 -7 0
-31 -13 0
-31 -16 0
-31 -19 0
-31 -22 0
-31 -25 0
-31 -28 0
-31 -40 0
-31 -43 0
-31 -49 0
-31 -52 0
-31 -70 0
-31 -85 0
-31 -88 0
-31 -91 0
-31 -94 0
-31 -109 0
-34 -13 0
-34 -19 0
-34 -22 0
-34 -25 0
-34 -28 0
-34 -46 0
-34 -49 0
-34 -52 0
-34 -58 0
-34 -61 0
-34 -64 0
-34 -67 0
-34 -73 0
-34 -76 0
-34 -88 0
-34 -91 0
-34 -94 0
-34 -97 0
-34 -100 0
-34 -103 0
-34 -106 0
-37 -1 0
-37 -7 0
-37 -10 0
-37 -13 0
-37 -16 0
-37 -19 0
-37 -22 0
-37 -25 0
-37 -28 0
-37 -40 0
-37 -46 0
-37 -55 0
-37 -67 0
-37 -70 0
-37 -76 0
-37 -82 0
-37 -88 0
-37 -100 0
-37 -103 0
-37 -109 0
-40 -10 0
-40 -16 0
-40 -19 0
-40 -31 0
-40 -37 0
-40 -46 0
-40 -49 0
-40 -52 0
-40 -55 0
-40 -58 0
-40 -61 0
-40 -64 0
-40 -67 0
-40 -70 0
-40 -73 0
-40 -76 0
-40 -79 0
-40 -85 0
-40 -94 0
-40 -97 0
-40 -103 0
-43 -7 0
-43 -16 0
-43 -22 0
-43 -25 0
-43 -31 0
-43 -46 0
-43 -49 0
-43 -55 0
-43 -58 0
-43 -64 0
-43 -76 0
-43 -82 0
-43 -85 0
-43 -91 0
-43 -94 0
-43 -97 0
-43 -106 0
-43 -109 0
-43 -115 0
-46 -1 0
-46 -4 0
-46 -7 0
-46 -13 0
-46 -16 0
-46 -22 0
-46 -28 0
-46 -34 0
-46 -37 0
-46 -40 0
-46 -43 0
-46 -58 0
-46 -64 0
-46 -67 0
-46 -70 0
-46 -73 0
-46 -79 0
-46 -94 0
-46 -100 0
-46 -103 0
-49 -4 0
-49 -7 0
-49 -10 0
-49 -13 0
-49 -19 0
-49 -22 0
-49 -28 0
-49 -31 0
-49 -34 0
-49 -40 0
-49 -43 0
-49 -52 0
-49 -58 0
-49 -61 0
-49 -64 0
-49 -67 0
-49 -82 0
-49 -85 0
-49 -88 0
-49 -94 0
-49 -112 0
-49 -115 0
-52 -1 0
-52 -4 0
-52 -7 0
-52 -13 0
-52 -16 0
-52 -22 0
-52 -25 0
-52 -28 0
-52 -31 0
-52 -34 0
-52 -40 0
-52 -49 0
-52 -58 0
-52 -73 0
-52 -76 0
-52 -82 0
-52 -85 0
-52 -91 0
-52 -97 0
-52 -103 0
-52 -106 0
-52 -109 0
-52 -112 0
-55 -1 0
-55 -4 0
-55 -10 0
-55 -16 0
-55 -19 0
-55 -22 0
-55 -25 0
-55 -28 0
-55 -37 0
-55 -40 0
-55 -43 0
-55 -58 0
-55 -64 0
-55 -70 0
-55 -82 0
-55 -91 0
-55 -94 0
-55 -97 0
-55 -100 0
-55 -106 0
-55 -115 0
-58 -4 0
-58 -7 0
-58 -13 0
-58 -16 0
-58 -19 0
-58 -28 0
-58 -34 0
-58 -40 0
-58 -43 0
-58 -46 0
-58 -49 0
-58 -52 0
-58 -55 0
-58 -67 0
-58 -70 0
-58 -73 0
-58 -76 0
-58 -82 0
-58 -85 0
-58 -91 0
-58 -100 0
-58 -103 0
-58 -112 0
-58 -115 0
-61 -4 0
-61 -7 0
-61 -16 0
-61 -22 0
-61 -25 0
-61 -28 0
-61 -34 0
-61 -40 0
-61 -49 0
-61 -67 0
-61 -70 0
-61 -79 0
-61 -91 0
-61 -94 0
-61 -97 0
-61 -100 0
-61 -109 0
-64 -10 0
-64 -13 0
-64 -25 0
-64 -34 0
-64 -40 0
-64 -43 0
-64 -46 0
-64 -49 0
-64 -55 0
-64 -70 0
-64 -76 0
-64 -79 0
-64 -82 0
-64 -88 0
-64 -91 0
-64 -94 0
-64 -106 0
-64 -109 0
-64 -112 0
-67 -1 0
-67 -7 0
-67 -16 0
-67 -22 0
-67 -28 0
-67 -34 0
-67 -37 0
-67 -40 0
-67 -46 0
-67 -49 0
-67 -58 0
-67 -61 0
-67 -70 0
-67 -73 0
-67 -82 0
-67 -85 0
-67 -91 0
-67 -94 0
-67 -97 0
-67 -103 0
-70 -10 0
-70 -28 0
-70 -31 0
-70 -37 0
-70 -40 0
-70 -46 0
-70 -55 0
-70 -58 0
-70 -61 0
-70 -64 0
-70 -67 0
-70 -76 0
-70 -79 0
-70 -82 0
-70 -88 0
-70 -91 0
-70 -94 0
-70 -100 0
-70 -103 0
-73 -1 0
-73 -4 0
-73 -10 0
-73 -16 0
-73 -19 0
-73 -25 0
-73 -28 0
-73 -34 0
-73 -40 0
-73 -46 0
-73 -52 0
-73 -58 0
-73 -67 0
-73 -76 0
-73 -79 0
-73 -82 0
-73 -85 0
-73 -88 0
-73 -94 0
-73 -97 0
-73 -103 0
-73 -106 0
-73 -109 0
-76 -1 0
-76 -10 0
-76 -16 0
-76 -34 0
-76 -37 0
-76 -40 0
-76 -43 0
-76 -52 0
-76 -58 0
-76 -64 0
-76 -70 0
-76 -73 0
-76 -79 0
-76 -82 0
-76 -85 0
-76 -91 0
-76 -100 0
-76 -106 0
-76 -109 0
-76 -115 0
-79 -1 0
-79 -10 0
-79 -13 0
-79 -19 0
-79 -22 0
-79 -25 0
-79 -40 0
-79 -46 0
-79 -61 0
-79 -64 0
-79 -70 0
-79 -73 0
-79 -76 0
-79 -82 0
-79 -85 0
-79 -88 0
-79 -97 0
-79 -100 0
-79 -103 0
-79 -106 0
-82 -1 0
-82 -4 0
-82 -7 0
-82 -10 0
-82 -16 0
-82 -37 0
-82 -43 0
-82 -49 0
-82 -52 0
-82 -55 0
-82 -58 0
-82 -64 0
-82 -67 0
-82 -70 0
-82 -73 0
-82 -76 0
-82 -79 0
-82 -91 0
-82 -103 0
-82 -106 0
-82 -109 0
-85 -1 0
-85 -4 0
-85 -7 0
-85 -10 0
-85 -25 0
-85 -28 0
-85 -31 0
-85 -40 0
-85 -43 0
-85 -49 0
-85 -52 0
-85 -58 0
-85 -67 0
-85 -73 0
-85 -76 0
-85 -79 0
-85 -91 0
-85 -103 0
-88 -1 0
-88 -4 0
-88 -7 0
-88 -10 0
-88 -19 0
-88 -22 0
-88 -25 0
-88 -28 0
-88 -31 0
-88 -34 0
-88 -37 0
-88 -49 0
-88 -64 0
-88 -70 0
-88 -73 0
-88 -79 0
-88 -91 0
-88 -100 0
-88 -112 0
-91 -1 0
-91 -4 0
-91 -7 0
-91 -13 0
-91 -19 0
-91 -22 0
-91 -31 0
-91 -34 0
-91 -43 0
-91 -52 0
-91 -55 0
-91 -58 0
-91 -61 0
-91 -64 0
-91 -67 0
-91 -70 0
-91 -76 0
-91 -82 0
-91 -85 0
-94 -1 0
-94 -4 0
-94 -13 0
-94 -28 0
-94 -31 0
-94 -34 0
-94 -40 0
-94 -43 0
-94 -46 0
-94 -49 0
-94 -55 0
-94 -61 0
-94 -64 0
-94 -67 0
-94 -70 0
-94 -73 0
-94 -97 0
-97 -1 0
-97 -10 0
-97 -13 0
-97 -16 0
-97 -28 0
-97 -34 0
-97 -40 0
-97 -43 0
-97 -52 0
-97 -55 0
-97 -61 0
-97 -67 0
-97 -73 0
-97 -79 0
-97 -94 0
-97 -103 0
-97 -106 0
-97 -109 0
-97 -112 0
-97 -115 0
-100 -1 0
-100 -4 0
-100 -10 0
-100 -16 0
-100 -25 0
-100 -34 0
-100 -37 0
-100 -46 0
-100 -55 0
-100 -58 0
-100 -61 0
-100 -70 0
-100 -76 0
-100 -79 0
-100 -88 0
-100 -106 0
-100 -109 0
-100 -115 0
-103 -4 0
-103 -10 0
-103 -19 0
-103 -22 0
-103 -28 0
-103 -34 0
-103 -37 0
-103 -40 0
-103 -46 0
-103 -52 0
-103 -58 0
-103 -67 0
-103 -70 0
-103 -73 0
-103 -79 0
-103 -82 0
-103 -85 0
-103 -97 0
-103 -106 0
-103 -109 0
-103 -112 0
-106 -7 0
-106 -10 0
-106 -13 0
-106 -16 0
-106 -34 0
-106 -40 0
-106 -43 0
-106 -52 0
-106 -55 0
-106 -64 0
-106 -73 0
-106 -76 0
-106 -79 0
-106 -82 0
-106 -85 0
-106 -97 0
-106 -100 0
-106 -103 0
-106 -112 0
-109 -1 0
-109 -4 0
-109 -10 0
-109 -16 0
-109 -19 0
-109 -25 0
-109 -28 0
-109 -31 0
-109 -37 0
-109 -43 0
-109 -52 0
-109 -61 0
-109 -64 0
-109 -70 0
-109 -73 0
-109 -76 0
-109 -82 0
-109 -97 0
-109 -100 0
-109 -103 0
-109 -112 0
-109 -115 0
-112 -1 0
-112 -19 0
-112 -25 0
-112 -28 0
-112 -34 0
-112 -37 0
-112 -46 0
-112 -49 0
-112 -52 0
-112 -58 0
-112 -64 0
-112 -88 0
-112 -94 0
-112 -97 0
-112 -103 0
-112 -106 0
-112 -109 0
-112 -115 0
-115 -1 0
-115 -4 0
-115 -7 0
-115 -10 0
-115 -16 0
-115 -28 0
-115 -43 0
-115 -49 0
-115 -55 0
-115 -58 0
-115 -64 0
-115 -73 0
-115 -76 0
-115 -82 0
-115 -88 0
-115 -97 0
-115 -100 0
-115 -109 0
-118 -4 0
-118 -7 0
-118 -10 0
-118 -16 0
-118 -19 0
-118 -22 0
-118 -31 0
-118 -43 0
-118 -49 0
-118 -52 0
-118 -55 0
-118 -58 0
-118 -61 0
-118 -67 0
-118 -76 0
-118 -79 0
-118 -97 0
-118 -100 0
-118 -103 0
-118 -106 0
-118 -109 0
-2 -5 0
-2 -8 0
-2 -11 0
-2 -14 0
-2 -20 0
-2 -23 0
-2 -32 0
-2 -38 0
-2 -47 0
-2 -53 0
-2 -56 0
-2 -68 0
-2 -74 0
-2 -77 0
-2 -80 0
-2 -83 0
-2 -86 0
-2 -89 0
-2 -92 0
-2 -95 0
-2 -98 0
-2 -101 0
-2 -110 0
-2 -113 0
-5 -2 0
-5 -8 0
-5 -14 0
-5 -20 0
-5 -47 0
-5 -50 0
-5 -53 0
-5 -56 0
-5 -59 0
-5 -62 0
-5 -74 0
-5 -83 0
-5 -86 0
-5 -89 0
-5 -92 0
-5 -95 0
-5 -101 0
-5 -104 0
-5 -110 0
-5 -116 0
-8 -2 0
-8 -5 0
-8 -11 0
-8 -14 0
-8 -17 0
-8 -20 0
-8 -23 0
-8 -26 0
-8 -32 0
-8 -38 0
-8 -44 0
-8 -47 0
-8 -50 0
-8 -53 0
-8 -59 0
-8 -62 0
-8 -68 0
-8 -83 0
-8 -86 0
-8 -89 0
-8 -92 0
-8 -107 0
-8 -116 0
-11 -2 0
-11 -8 0
-11 -17 0
-11 -23 0
-11 -26 0
-11 -29 0
-11 -38 0
-11 -41 0
-11 -50 0
-11 -56 0
-11 -65 0
-11 -71 0
-11 -74 0
-11 -77 0
-11 -80 0
-11 -83 0
-11 -86 0
-11 -89 0
-11 -98 0
-11 -101 0
-11 -104 0
-11 -107 0
-11 -110 0
-11 -116 0
-14 -2 0
-14 -5 0
-14 -8 0
-14 -17 0
-14 -20 0
-14 -23 0
-14 -32 0
-14 -35 0
-14 -38 0
-14 -47 0
-14 -50 0
-14 -53 0
-14 -59 0
-14 -65 0
-14 -80 0
-14 -92 0
-14 -95 0
-14 -98 0
-17 -8 0
-17 -11 0
-17 -14 0
-17 -20 0
-17 -23 0
-17 -26 0
-17 -32 0
-17 -38 0
-17 -41 0
-17 -44 0
-17 -47 0
-17 -53 0
-17 -56 0
-17 -59 0
-17 -62 0
-17 -68 0
-17 -74 0
-17 -77 0
-17 -83 0
-17 -98 0
-17 -101 0
-17 -107 0
-17 -110 0
-17 -116 0
-20 -2 0
-20 -5 0
-20 -8 0
-20 -14 0
-20 -17 0
-20 -26 0
-20 -29 0
-20 -32 0
-20 -35 0
-20 -38 0
-20 -41 0
-20 -50 0
-20 -56 0
-20 -59 0
-20 -74 0
-20 -80 0
-20 -89 0
-20 -92 0
-20 -104 0
-20 -110 0
-20 -113 0
-23 -2 0
-23 -8 0
-23 -11 0
-23 -14 0
-23 -17 0
-23 -26 0
-23 -32 0
-23 -35 0
-23 -38 0
-23 -44 0
-23 -47 0
-23 -50 0
-23 -53 0
-23 -56 0
-23 -62 0
-23 -68 0
-23 -80 0
-23 -89 0
-23 -92 0
-23 -104 0
-26 -8 0
-26 -11 0
-26 -17 0
-26 -20 0
-26 -23 0
-26 -32 0
-26 -35 0
-26 -38 0
-26 -44 0
-26 -53 0
-26 -56 0
-26 -62 0
-26 -65 0
-26 -74 0
-26 -80 0
-26 -86 0
-26 -89 0
-26 -101 0
-26 -110 0
-29 -11 0
-29 -20 0
-29 -32 0
-29 -35 0
-29 -38 0
-29 -47 0
-29 -50 0
-29 -53 0
-29 -56 0
-29 -59 0
-29 -62 0
-29 -68 0
-29 -71 0
-29 -74 0
-29 -86 0
-29 -89 0
-29 -95 0
-29 -98 0
-29 -104 0
-29 -110 0
-29 -113 0
-32 -2 0
-32 -8 0
-32 -14 0
-32 -17 0
-32 -20 0
-32 -23 0
-32 -26 0
-32 -29 0
-32 -41 0
-32 -44 0
-32 -50 0
-32 -53 0
-32 -71 0
-32 -86 0
-32 -89 0
-32 -92 0
-32 -95 0
-32 -110 0
-35 -14 0
-35 -20 0
-35 -23 0
-35 -26 0
-35 -29 0
-35 -47 0
-35 -50 0
-35 -53 0
-35 -59 0
-35 -62 0
-35 -65 0
-35 -68 0
-35 -74 0
-35 -77 0
-35 -89 0
-35 -92 0
-35 -95 0
-35 -98 0
-35 -101 0
-35 -104 0
-35 -107 0
-38 -2 0
-38 -8 0
-38 -11 0
-38 -14 0
-38 -17 0
-38 -20 0
-38 -23 0
-38 -26 0
-38 -29 0
-38 -41 0
-38 -47 0
-38 -56 0
-38 -68 0
-38 -71 0
-38 -77 0
-38 -83 0
-38 -89 0
-38 -101 0
-38 -104 0
-38 -110 0
-41 -11 0
-41 -17 0
-41 -20 0
-41 -32 0
-41 -38 0
-41 -47 0
-41 -50 0
-41 -53 0
-41 -56 0
-41 -59 0
-41 -62 0
-41 -65 0
-41 -68 0
-41 -71 0
-41 -74 0
-41 -77 0
-41 -80 0
-41 -86 0
-41 -95 0
-41 -98 0
-41 -104 0
-44 -8 0
-44 -17 0
-44 -23 0
-44 -26 0
-44 -32 0
-44 -47 0
-44 -50 0
-44 -56 0
-44 -59 0
-44 -65 0
-44 -77 0
-44 -83 0
-44 -86 0
-44 -92 0
-44 -95 0
-44 -98 0
-44 -107 0
-44 -110 0
-44 -116 0
-47 -2 0
-47 -5 0
-47 -8 0
-47 -14 0
-47 -17 0
-47 -23 0
-47 -29 0
-47 -35 0
-47 -38 0
-47 -41 0
-47 -44 0
-47 -59 0
-47 -65 0
-47 -68 0
-47 -71 0
-47 -74 0
-47 -80 0
-47 -95 0
-47 -101 0
-47 -104 0
-50 -5 0
-50 -8 0
-50 -11 0
-50 -14 0
-50 -20 0
-50 -23 0
-50 -29 0
-50 -32 0
-50 -35 0
-50 -41 0
-50 -44 0
-50 -53 0
-50 -59 0
-50 -62 0
-50 -65 0
-50 -68 0
-50 -83 0
-50 -86 0
-50 -89 0
-50 -95 0
-50 -113 0
-50 -116 0
-53 -2 0
-53 -5 0
-53 -8 0
-53 -14 0
-53 -17 0
-53 -23 0
-53 -26 0
-53 -29 0
-53 -32 0
-53 -35 0
-53 -41 0
-53 -50 0
-53 -59 0
-53 -74 0
-53 -77 0
-53 -83 0
-53 -86 0
-53 -92 0
-53 -98 0
-53 -104 0
-53 -107 0
-53 -110 0
-53 -113 0
-56 -2 0
-56 -5 0
-56 -11 0
-56 -17 0
-56 -20 0
-56 -23 0
-56 -26 0
-56 -29 0
-56 -38 0
-56 -41 0
-56 -44 0
-56 -59 0
-56 -65 0
-56 -71 0
-56 -83 0
-56 -92 0
-56 -95 0
-56 -98 0
-56 -101 0
-56 -107 0
-56 -116 0
-59 -5 0
-59 -8 0
-59 -14 0
-59 -17 0
-59 -20 0
-59 -29 0
-59 -35 0
-59 -41 0
-59 -44 0
-59 -47 0
-59 -50 0
-59 -53 0
-59 -56 0
-59 -68 0
-59 -71 0
-59 -74 0
-59 -77 0
-59 -83 0
-59 -86 0
-59 -92 0
-59 -101 0
-59 -104 0
-59 -113 0
-59 -116 0
-62 -5 0
-62 -8 0
-62 -17 0
-62 -23 0
-62 -26 0
-62 -29 0
-62 -35 0
-62 -41 0
-62 -50 0
-62 -68 0
-62 -71 0
-62 -80 0
-62 -92 0
-62 -95 0
-62 -98 0
-62 -101 0
-62 -110 0
-65 -11 0
-65 -14 0
-65 -26 0
-65 -35 0
-65 -41 0
-65 -44 0
-65 -47 0
-65 -50 0
-65 -56 0
-65 -71 0
-65 -77 0
-65 -80 0
-65 -83 0
-65 -89 0
-65 -92 0
-65 -95 0
-65 -107 0
-65 -110 0
-65 -113 0
-68 -2 0
-68 -8 0
-68 -17 0
-68 -23 0
-68 -29 0
-68 -35 0
-68 -38 0
-68 -41 0
-68 -47 0
-68 -50 0
-68 -59 0
-68 -62 0
-68 -71 0
-68 -74 0
-68 -83 0
-68 -86 0
-68 -92 0
-68 -95 0
-68 -98 0
-68 -104 0
-71 -11 0
-71 -29 0
-71 -32 0
-71 -38 0
-71 -41 0
-71 -47 0
-71 -56 0
-71 -59 0
-71 -62 0
-71 -65 0
-71 -68 0
-71 -77 0
-71 -80 0
-71 -83 0
-71 -89 0
-71 -92 0
-71 -95 0
-71 -101 0
-71 -104 0
-74 -2 0
-74 -5 0
-74 -11 0
-74 -17 0
-74 -20 0
-74 -26 0
-74 -29 0
-74 -35 0
-74 -41 0
-74 -47 0
-74 -53 0
-74 -59 0
-74 -68 0
-74 -77 0
-74 -80 0
-74 -83 0
-74 -86 0
-74 -89 0
-74 -95 0
-74 -98 0
-74 -104 0
-74 -107 0
-74 -110 0
-77 -2 0
-77 -11 0
-77 -17 0
-77 -35 0
-77 -38 0
-77 -41 0
-77 -44 0
-77 -53 0
-77 -59 0
-77 -65 0
-77 -71 0
-77 -74 0
-77 -80 0
-77 -83 0
-77 -86 0
-77 -92 0
-77 -101 0
-77 -107 0
-77 -110 0
-77 -116 0
-80 -2 0
-80 -11 0
-80 -14 0
-80 -20 0
-80 -23 0
-80 -26 0
-80 -41 0
-80 -47 0
-80 -62 0
-80 -65 0
-80 -71 0
-80 -74 0
-80 -77 0
-80 -83 0
-80 -86 0
-80 -89 0
-80 -98 0
-80 -101 0
-80 -104 0
-80 -107 0
-83 -2 0
-83 -5 0
-83 -8 0
-83 -11 0
-83 -17 0
-83 -38 0
-83 -44 0
-83 -50 0
-83 -53 0
-83 -56 0
-83 -59 0
-83 -65 0
-83 -68 0
-83 -71 0
-83 -74 0
-83 -77 0
-83 -80 0
-83 -92 0
-83 -104 0
-83 -107 0
-83 -110 0
-86 -2 0
-86 -5 0
-86 -8 0
-86 -11 0
-86 -26 0
-86 -29 0
-86 -32 0
-86 -41 0
-86 -44 0
-86 -50 0
-86 -53 0
-86 -59 0
-86 -68 0
-86 -74 0
-86 -77 0
-86 -80 0
-86 -92 0
-86 -104 0
-89 -2 0
-89 -5 0
-89 -8 0
-89 -11 0
-89 -20 0
-89 -23 0
-89 -26 0
-89 -29 0
-89 -32 0
-89 -35 0
-89 -38 0
-89 -50 0
-89 -65 0
-89 -71 0
-89 -74 0
-89 -80 0
-89 -92 0
-89 -101 0
-89 -113 0
-92 -2 0
-92 -5 0
-92 -8 0
-92 -14 0
-92 -20 0
-92 -23 0
-92 -32 0
-92 -35 0
-92 -44 0
-92 -53 0
-92 -56 0
-92 -59 0
-92 -62 0
-92 -65 0
-92 -68 0
-92 -71 0
-92 -77 0
-92 -83 0
-92 -86 0
-95 -2 0
-95 -5 0
-95 -14 0
-95 -29 0
-95 -32 0
-95 -35 0
-95 -41 0
-95 -44 0
-95 -47 0
-95 -50 0
-95 -56 0
-95 -62 0
-95 -65 0
-95 -68 0
-95 -71 0
-95 -74 0
-95 -98 0
-98 -2 0
-98 -11 0
-98 -14 0
-98 -17 0
-98 -29 0
-98 -35 0
-98 -41 0
-98 -44 0
-98 -53 0
-98 -56 0
-98 -62 0
-98 -68 0
-98 -74 0
-98 -80 0
-98 -95 0
-98 -104 0
-98 -107 0
-98 -110 0
-98 -113 0
-98 -116 0
-101 -2 0
-101 -5 0
-101 -11 0
-101 -17 0
-101 -26 0
-101 -35 0
-101 -38 0
-101 -47 0
-101 -56 0
-101 -59 0
-101 -62 0
-101 -71 0
-101 -77 0
-101 -80 0
-101 -89 0
-101 -107 0
-101 -110 0
-101 -116 0
-104 -5 0
-104 -11 0
-104 -20 0
-104 -23 0
-104 -29 0
-104 -35 0
-104 -38 0
-104 -41 0
-104 -47 0
-104 -53 0
-104 -59 0
-104 -68 0
-104 -71 0
-104 -74 0
-104 -80 0
-104 -83 0
-104 -86 0
-104 -98 0
-104 -107 0
-104 -110 0
-104 -113 0
-107 -8 0
-107 -11 0
-107 -14 0
-107 -17 0
-107 -35 0
-107 -41 0
-107 -44 0
-107 -53 0
-107 -56 0
-107 -65 0
-107 -74 0
-107 -77 0
-107 -80 0
-107 -83 0
-107 -86 0
-107 -98 0
-107 -101 0
-107 -104 0
-107 -113 0
-110 -2 0
-110 -5 0
-110 -11 0
-110 -17 0
-110 -20 0
-110 -26 0
-110 -29 0
-110 -32 0
-110 -38 0
-110 -44 0
-110 -53 0
-110 -62 0
-110 -65 0
-110 -71 0
-110 -74 0
-110 -77 0
-110 -83 0
-110 -98 0
-110 -101 0
-110 -104 0
-110 -113 0
-110 -116 0
-113 -2 0
-113 -20 0
-113 -26 0
-113 -29 0
-113 -35 0
-113 -38 0
-113 -47 0
-113 -50 0
-113 -53 0
-113 -59 0
-113 -65 0
-113 -89 0
-113 -95 0
-113 -98 0
-113 -104 0
-113 -107 0
-113 -110 0
-113 -116 0
-116 -2 0
-116 -5 0
-116 -8 0
-116 -11 0
-116 -17 0
-116 -29 0
-116 -44 0
-116 -50 0
-116 -56 0
-116 -59 0
-116 -65 0
-116 -74 0
-116 -77 0
-116 -83 0
-116 -89 0
-116 -98 0
-116 -101 0
-116 -110 0
-119 -5 0
-119 -8 0
-119 -11 0
-119 -17 0
-119 -20 0
-119 -23 0
-119 -32 0
-119 -44 0
-119 -50 0
-119 -53 0
-119 -56 0
-119 -59 0
-119 -62 0
-119 -68 0
-119 -77 0
-119 -80 0
-119 -98 0
-119 -101 0
-119 -104 0
-119 -107 0
-119 -110 0
-3 -6 0
-3 -9 0
-3 -12 0
-3 -15 0
-3 -21 0
-3 -24 0
-3 -33 0
-3 -39 0
-3 -48 0
-3 -54 0
-3 -57 0
-3 -69 0
-3 -75 0
-3 -78 0
-3 -81 0
-3 -84 0
-3 -87 0
-3 -90 0
-3 -93 0
-3 -96 0
-3 -99 0
-3 -102 0
-3 -111 0
-3 -114 0
-6 -3 0
-6 -9 0
-6 -15 0
-6 -21 0
-6 -48 0
-6 -51 0
-6 -54 0
-6 -57 0
-6 -60 0
-6 -63 0
-6 -75 0
-6 -84 0
-6 -87 0
-6 -90 0
-6 -93 0
-6 -96 0
-6 -102 0
-6 -105 0
-6 -111 0
-6 -117 0
-9 -3 0
-9 -6 0
-9 -12 0
-9 -15 0
-9 -18 0
-9 -21 0
-9 -24 0
-9 -27 0
-9 -33 0
-9 -39 0
-9 -45 0
-9 -48 0
-9 -51 0
-9 -54 0
-9 -60 0
-9 -63 0
-9 -69 0
-9 -84 0
-9 -87 0
-9 -90 0
-9 -93 0
-9 -108 0
-9 -117 0
-12 -3 0
-12 -9 0
-12 -18 0
-12 -24 0
-12 -27 0
-12 -30 0
-12 -39 0
-12 -42 0
-12 -51 0
-12 -57 0
-12 -66 0
-12 -72 0
-12 -75 0
-12 -78 0
-12 -81 0
-12 -84 0
-12 -87 0
-12 -90 0
-12 -99 0
-12 -102 0
-12 -105 0
-12 -108 0
-12 -111 0
-12 -117 0
-15 -3 0
-15 -6 0
-15 -9 0
-15 -18 0
-15 -21 0
-15 -24 0
-15 -33 0
-15 -36 0
-15 -39 0
-15 -48 0
-15 -51 0
-15 -54 0
-15 -60 0
-15 -66 0
-15 -81 0
-15 -93 0
-15 -96 0
-15 -99 0
-18 -9 0
-18 -12 0
-18 -15 0
-18 -21 0
-18 -24 0
-18 -27 0
-18 -33 0
-18 -39 0
-18 -42 0
-18 -45 0
-18 -48 0
-18 -54 0
-18 -57 0
-18 -60 0
-18 -63 0
-18 -69 0
-18 -75 0
-18 -78 0
-18 -84 0
-18 -99 0
-18 -102 0
-18 -108 0
-18 -111 0
-18 -117 0
-21 -3 0
-21 -6 0
-21 -9 0
-21 -15 0
-21 -18 0
-21 -27 0
-21 -30 0
-21 -33 0
-21 -36 0
-21 -39 0
-21 -42 0
-21 -51 0
-21 -57 0
-21 -60 0
-21 -75 0
-21 -81 0
-21 -90 0
-21 -93 0
-21 -105 0
-21 -111 0
-21 -114 0
-24 -3 0
-24 -9 0
-24 -12 0
-24 -15 0
-24 -18 0
-24 -27 0
-24 -33 0
-24 -36 0
-24 -39 0
-24 -45 0
-24 -48 0
-24 -51 0
-24 -54 0
-24 -57 0
-24 -63 0
-24 -69 0
-24 -81 0
-24 -90 0
-24 -93 0
-24 -105 0
-27 -9 0
-27 -12 0
-27 -18 0
-27 -21 0
-27 -24 0
-27 -33 0
-27 -36 0
-27 -39 0
-27 -45 0
-27 -54 0
-27 -57 0
-27 -63 0
-27 -66 0
-27 -75 0
-27 -81 0
-27 -87 0
-27 -90 0
-27 -102 0
-27 -111 0
-30 -12 0
-30 -21 0
-30 -33 0
-30 -36 0
-30 -39 0
-30 -48 0
-30 -51 0
-30 -54 0
-30 -57 0
-30 -60 0
-30 -63 0
-30 -69 0
-30 -72 0
-30 -75 0
-30 -87 0
-30 -90 0
-30 -96 0
-30 -99 0
-30 -105 0
-30 -111 0
-30 -114 0
-33 -3 0
-33 -9 0
-33 -15 0
-33 -18 0
-33 -21 0
-33 -24 0
-33 -27 0
-33 -30 0
-33 -42 0
-33 -45 0
-33 -51 0
-33 -54 0
-33 -72 0
-33 -87 0
-33 -90 0
-33 -93 0
-33 -96 0
-33 -111 0
-36 -15 0
-36 -21 0
-36 -24 0
-36 -27 0
-36 -30 0
-36 -48 0
-36 -51 0
-36 -54 0
-36 -60 0
-36 -63 0
-36 -66 0
-36 -69 0
-36 -75 0
-36 -78 0
-36 -90 0
-36 -93 0
-36 -96 0
-36 -99 0
-36 -102 0
-36 -105 0
-36 -108 0
-39 -3 0
-39 -9 0
-39 -12 0
-39 -15 0
-39 -18 0
-39 -21 0
-39 -24 0
-39 -27 0
-39 -30 0
-39 -42 0
-39 -48 0
-39 -57 0
-39 -69 0
-39 -72 0
-39 -78 0
-39 -84 0
-39 -90 0
-39 -102 0
-39 -105 0
-39 -111 0
-42 -12 0
-42 -18 0
-42 -21 0
-42 -33 0
-42 -39 0
-42 -48 0
-42 -51 0
-42 -54 0
-42 -57 0
-42 -60 0
-42 -63 0
-42 -66 0
-42 -69 0
-42 -72 0
-42 -75 0
-42 -78 0
-42 -81 0
-42 -87 0
-42 -96 0
-42 -99 0
-42 -105 0
-45 -9 0
-45 -18 0
-45 -24 0
-45 -27 0
-45 -33 0
-45 -48 0
-45 -51 0
-45 -57 0
-45 -60 0
-45 -66 0
-45 -78 0
-45 -84 0
-45 -87 0
-45 -93 0
-45 -96 0
-45 -99 0
-45 -108 0
-45 -111 0
-45 -117 0
-48 -3 0
-48 -6 0
-48 -9 0
-48 -15 0
-48 -18 0
-48 -24 0
-48 -30 0
-48 -36 0
-48 -39 0
-48 -42 0
-48 -45 0
-48 -60 0
-48 -66 0
-48 -69 0
-48 -72 0
-48 -75 0
-48 -81 0
-48 -96 0
-48 -102 0
-48 -105 0
-51 -6 0
-51 -9 0
-51 -12 0
-51 -15 0
-51 -21 0
-51 -24 0
-51 -30 0
-51 -33 0
-51 -36 0
-51 -42 0
-51 -45 0
-51 -54 0
-51 -60 0
-51 -63 0
-51 -66 0
-51 -69 0
-51 -84 0
-51 -87 0
-51 -90 0
-51 -96 0
-51 -114 0
-51 -117 0
-54 -3 0
-54 -6 0
-54 -9 0
-54 -15 0
-54 -18 0
-54 -24 0
-54 -27 0
-54 -30 0
-54 -33 0
-54 -36 0
-54 -42 0
-54 -51 0
-54 -60 0
-54 -75 0
-54 -78 0
-54 -84 0
-54 -87 0
-54 -93 0
-54 -99 0
-54 -105 0
-54 -108 0
-54 -111 0
-54 -114 0
-57 -3 0
-57 -6 0
-57 -12 0
-57 -18 0
-57 -21 0
-57 -24 0
-57 -27 0
-57 -30 0
-57 -39 0
-57 -42 0
-57 -45 0
-57 -60 0
-57 -66 0
-57 -72 0
-57 -84 0
-57 -93 0
-57 -96 0
-57 -99 0
-57 -102 0
-57 -108 0
-57 -117 0
-60 -6 0
-60 -9 0
-60 -15 0
-60 -18 0
-60 -21 0
-60 -30 0
-60 -36 0
-60 -42 0
-60 -45 0
-60 -48 0
-60 -51 0
-60 -54 0
-60 -57 0
-60 -69 0
-60 -72 0
-60 -75 0
-60 -78 0
-60 -84 0
-60 -87 0
-60 -93 0
-60 -102 0
-60 -105 0
-60 -114 0
-60 -117 0
-63 -6 0
-63 -9 0
-63 -18 0
-63 -24 0
-63 -27 0
-63 -30 0
-63 -36 0
-63 -42 0
-63 -51 0
-63 -69 0
-63 -72 0
-63 -81 0
-63 -93 0
-63 -96 0
-63 -99 0
-63 -102 0
-63 -111 0
-66 -12 0
-66 -15 0
-66 -27 0
-66 -36 0
-66 -42 0
-66 -45 0
-66 -48 0
-66 -51 0
-66 -57 0
-66 -72 0
-66 -78 0
-66 -81 0
-66 -84 0
-66 -90 0
-66 -93 0
-66 -96 0
-66 -108 0
-66 -111 0
-66 -114 0
-69 -3 0
-69 -9 0
-69 -18 0
-69 -24 0
-69 -30 0
-69 -36 0
-69 -39 0
-69 -42 0
-69 -48 0
-69 -51 0
-69 -60 0
-69 -63 0
-69 -72 0
-69 -75 0
-69 -84 0
-69 -87 0
-69 -93 0
-69 -96 0
-69 -99 0
-69 -105 0
-72 -12 0
-72 -30 0
-72 -33 0
-72 -39 0
-72 -42 0
-72 -48 0
-72 -57 0
-72 -60 0
-72 -63 0
-72 -66 0
-72 -69 0
-72 -78 0
-72 -81 0
-72 -84 0
-72 -90 0
-72 -93 0
-72 -96 0
-72 -102 0
-72 -105 0
-75 -3 0
-75 -6 0
-75 -12 0
-75 -18 0
-75 -21 0
-75 -27 0
-75 -30 0
-75 -36 0
-75 -42 0
-75 -48 0
-75 -54 0
-75 -60 0
-75 -69 0
-75 -78 0
-75 -81 0
-75 -84 0
-75 -87 0
-75 -90 0
-75 -96 0
-75 -99 0
-75 -105 0
-75 -108 0
-75 -111 0
-78 -3 0
-78 -12 0
-78 -18 0
-78 -36 0
-78 -39 0
-78 -42 0
-78 -45 0
-78 -54 0
-78 -60 0
-78 -66 0
-78 -72 0
-78 -75 0
-78 -81 0
-78 -84 0
-78 -87 0
-78 -93 0
-78 -102 0
-78 -108 0
-78 -111 0
-78 -117 0
-81 -3 0
-81 -12 0
-81 -15 0
-81 -21 0
-81 -24 0
-81 -27 0
-81 -42 0
-81 -48 0
-81 -63 0
-81 -66 0
-81 -72 0
-81 -75 0
-81 -78 0
-81 -84 0
-81 -87 0
-81 -90 0
-81 -99 0
-81 -102 0
-81 -105 0
-81 -108 0
-84 -3 0
-84 -6 0
-84 -9 0
-84 -12 0
-84 -18 0
-84 -39 0
-84 -45 0
-84 -51 0
-84 -54 0
-84 -57 0
-84 -60 0
-84 -66 0
-84 -69 0
-84 -72 0
-84 -75 0
-84 -78 0
-84 -81 0
-84 -93 0
-84 -105 0
-84 -108 0
-84 -111 0
-87 -3 0
-87 -6 0
-87 -9 0
-87 -12 0
-87 -27 0
-87 -30 0
-87 -33 0
-87 -42 0
-87 -45 0
-87 -51 0
-87 -54 0
-87 -60 0
-87 -69 0
-87 -75 0
-87 -78 0
-87 -81 0
-87 -93 0
-87 -105 0
-90 -3 0
-90 -6 0
-90 -9 0
-90 -12 0
-90 -21 0
-90 -24 0
-90 -27 0
-90 -30 0
-90 -33 0
-90 -36 0
-90 -39 0
-90 -51 0
-90 -66 0
-90 -72 0
-90 -75 0
-90 -81 0
-90 -93 0
-90 -102 0
-90 -114 0
-93 -3 0
-93 -6 0
-93 -9 0
-93 -15 0
-93 -21 0
-93 -24 0
-93 -33 0
-93 -36 0
-93 -45 0
-93 -54 0
-93 -57 0
-93 -60 0
-93 -63 0
-93 -66 0
-93 -69 0
-93 -72 0
-93 -78 0
-93 -84 0
-93 -87 0
-96 -3 0
-96 -6 0
-96 -15 0
-96 -30 0
-96 -33 0
-96 -36 0
-96 -42 0
-96 -45 0
-96 -48 0
-96 -51 0
-96 -57 0
-96 -63 0
-96 -66 0
-96 -69 0
-96 -72 0
-96 -75 0
-96 -99 0
-99 -3 0
-99 -12 0
-99 -15 0
-99 -18 0
-99 -30 0
-99 -36 0
-99 -42 0
-99 -45 0
-99 -54 0
-99 -57 0
-99 -63 0
-99 -69 0
-99 -75 0
-99 -81 0
-99 -96 0
-99 -105 0
-99 -108 0
-99 -111 0
-99 -114 0
-99 -117 0
-102 -3 0
-102 -6 0
-102 -12 0
-102 -18 0
-102 -27 0
-102 -36 0
-102 -39 0
-102 -48 0
-102 -57 0
-102 -60 0
-102 -63 0
-102 -72 0
-102 -78 0
-102 -81 0
-102 -90 0
-102 -108 0
-102 -111 0
-102 -117 0
-105 -6 0
-105 -12 0
-105 -21 0
-105 -24 0
-105 -30 0
-105 -36 0
-105 -39 0
-105 -42 0
-105 -48 0
-105 -54 0
-105 -60 0
-105 -69 0
-105 -72 0
-105 -75 0
-105 -81 0
-105 -84 0
-105 -87 0
-105 -99 0
-105 -108 0
-105 -111 0
-105 -114 0
-108 -9 0
-108 -12 0
-108 -15 0
-108 -18 0
-108 -36 0
-108 -42 0
-108 -45 0
-108 -54 0
-108 -57 0
-108 -66 0
-108 -75 0
-108 -78 0
-108 -81 0
-108 -84 0
-108 -87 0
-108 -99 0
-108 -102 0
-108 -105 0
-108 -114 0
-111 -3 0
-111 -6 0
-111 -12 0
-111 -18 0
-111 -21 0
-111 -27 0
-111 -30 0
-111 -33 0
-111 -39 0
-111 -45 0
-111 -54 0
-111 -63 0
-111 -66 0
-111 -72 0
-111 -75 0
-111 -78 0
-111 -84 0
-111 -99 0
-111 -102 0
-111 -105 0
-111 -114 0
-111 -117 0
-114 -3 0
-114 -21 0
-114 -27 0
-114 -30 0
-114 -36 0
-114 -39 0
-114 -48 0
-114 -51 0
-114 -54 0
-114 -60 0
-114 -66 0
-114 -90 0
-114 -96 0
-114 -99 0
-114 -105 0
-114 -108 0
-114 -111 0
-114 -117 0
-117 -3 0
-117 -6 0
-117 -9 0
-117 -12 0
-117 -18 0
-117 -30 0
-117 -45 0
-117 -51 0
-117 -57 0
-117 -60 0
-117 -66 0
-117 -75 0
-117 -78 0
-117 -84 0
-117 -90 0
-117 -99 0
-117 -102 0
-117 -111 0
-120 -6 0
-120 -9 0
-120 -12 0
-120 -18 0
-120 -21 0
-120 -24 0
-120 -33 0
-120 -45 0
-120 -51 0
-120 -54 0
-120 -57 0
-120 -60 0
-120 -63 0
-120 -69 0
-120 -78 0
-120 -81 0
-120 -99 0
-120 -102 0
-120 -105 0
-120 -108 0
-120 -111 0
